



9 9
7 1 5 6 1 9 8 6 2 8 4 9 6 11 3 10 0 17
7 8 5 16 6 17 8 8 2 8 1 12 0 18 3 4 4 17
3 8 8 13 5 6 6 2 7 6 0 13 4 4 1 16 2 17
3 10 4 15 7 18 6 8 8 16 0 15 5 4 1 8 2 3
1 8 8 9 3 12 6 10 7 15 4 18 0 3 2 10 5 17
0 6 5 9 7 2 8 3 2 4 4 17 3 7 6 14 1 1
4 6 8 11 3 10 0 13 2 2 6 2 1 10 5 11 7 9
5 18 6 16 8 10 4 2 2 1 1 12 3 17 7 17 0 19
5 16 7 13 3 10 8 17 1 19 4 10 6 11 0 2 2 6
